60
1 0 11
2 1 4
3 0 5
3 1 6
4 0 4
4 2 5
4 3 9
5 0 8
5 1 4
6 0 10
6 1 4
6 2 10
6 3 2
6 4 6
7 2 8
7 4 6
7 5 1
7 6 2
8 0 6
8 5 10
8 6 2
9 0 1
9 1 9
9 4 2
9 5 6
9 6 8
9 8 10
10 0 8
10 3 7
10 5 9
10 7 6
10 8 5
11 0 6
11 1 2
11 3 4
11 4 5
11 5 8
11 7 1
11 9 4
12 0 4
12 3 8
12 5 3
12 11 1
13 0 8
13 1 1
13 3 5
13 5 9
13 8 4
13 10 8
13 12 8
14 0 8
14 3 2
14 5 11
14 6 7
14 9 6
14 12 1
15 0 4
15 1 9
15 5 3
15 6 7
15 7 7
15 10 9
15 12 8
15 13 5
16 1 8
16 3 8
16 4 8
16 5 10
16 7 6
16 11 6
16 12 4
16 14 1
17 3 4
17 4 5
17 5 10
17 10 2
17 12 4
17 14 6
17 15 8
18 0 5
18 2 7
18 3 11
18 11 2
18 12 2
18 13 8
18 15 11
18 16 5
18 17 1
19 0 6
19 1 5
19 2 7
19 3 5
19 6 2
19 7 11
19 13 8
19 14 2
19 16 5
19 17 2
20 3 3
20 5 3
20 7 4
20 9 10
20 11 9
20 13 5
20 14 4
20 15 4
21 0 11
21 1 1
21 5 9
21 10 11
21 16 1
21 19 3
22 0 7
22 1 8
22 4 10
22 5 7
22 6 3
22 9 8
22 12 3
22 15 1
22 16 8
22 18 2
22 20 6
23 2 10
23 6 5
23 7 7
23 10 6
23 16 3
23 18 3
23 19 6
23 21 7
23 22 6
24 1 10
24 2 4
24 4 4
24 5 3
24 7 1
24 8 1
24 10 7
24 12 8
24 13 4
24 15 2
24 16 4
24 19 11
24 20 6
24 21 10
24 22 7
25 0 4
25 1 9
25 2 3
25 5 5
25 7 3
25 9 7
25 11 1
25 13 8
25 14 7
25 15 10
25 16 1
25 17 4
25 19 3
25 20 2
25 21 9
25 22 9
25 23 4
26 0 2
26 5 8
26 7 11
26 10 5
26 12 4
26 14 3
26 19 9
26 20 8
26 21 6
26 23 3
26 24 10
27 1 3
27 2 9
27 5 10
27 6 8
27 7 7
27 8 7
27 10 2
27 12 9
27 16 5
27 24 5
28 2 2
28 6 11
28 9 4
28 11 9
28 12 5
28 18 3
28 20 7
28 22 10
28 23 6
28 24 7
28 26 3
28 27 7
29 0 10
29 1 4
29 2 2
29 4 2
29 5 11
29 6 3
29 8 11
29 9 3
29 11 9
29 14 2
29 19 6
29 21 8
29 24 6
29 25 7
29 26 10
29 28 7
30 0 7
30 4 1
30 5 7
30 7 3
30 9 4
30 10 10
30 14 11
30 18 10
30 19 2
30 21 8
30 24 5
30 25 2
30 26 8
30 27 11
30 28 10
30 29 11
31 0 9
31 3 2
31 5 4
31 6 4
31 12 11
31 13 9
31 14 7
31 15 8
31 19 5
31 22 3
31 24 9
31 25 2
31 26 6
31 28 11
31 29 1
31 30 3
32 1 1
32 2 7
32 7 4
32 11 5
32 12 10
32 16 11
32 18 9
32 19 1
32 21 10
32 22 10
32 23 1
32 24 3
32 28 9
32 29 5
32 30 11
33 0 5
33 1 3
33 2 5
33 7 2
33 10 5
33 13 2
33 15 4
33 16 7
33 18 2
33 23 1
33 24 1
33 28 9
34 0 1
34 1 4
34 4 6
34 5 4
34 6 5
34 7 3
34 8 8
34 9 3
34 12 11
34 15 6
34 17 4
34 21 11
34 22 11
34 25 2
34 27 9
34 28 3
34 29 9
34 30 8
34 31 9
34 32 4
35 0 4
35 2 5
35 3 7
35 6 8
35 7 4
35 8 6
35 11 1
35 13 5
35 14 1
35 16 11
35 18 10
35 21 2
35 23 8
35 24 6
36 2 7
36 5 11
36 6 10
36 14 11
36 16 1
36 18 8
36 19 3
36 21 5
36 24 3
36 25 3
36 27 10
36 31 7
36 34 8
36 35 4
37 0 11
37 1 11
37 2 6
37 5 4
37 7 11
37 8 10
37 9 4
37 10 6
37 12 10
37 13 3
37 15 7
37 17 8
37 19 2
37 20 10
37 24 7
37 25 9
37 26 3
37 30 2
37 31 8
37 33 8
38 0 9
38 3 1
38 4 4
38 8 1
38 10 3
38 12 7
38 14 4
38 15 3
38 17 11
38 18 3
38 19 10
38 20 7
38 21 11
38 23 8
38 24 2
38 25 10
38 26 4
38 28 11
38 29 2
38 30 6
38 33 7
39 5 9
39 6 4
39 7 2
39 8 1
39 9 1
39 10 10
39 11 10
39 12 5
39 13 9
39 15 1
39 17 9
39 19 2
39 20 10
39 23 10
39 24 10
39 25 11
39 26 4
39 27 11
39 30 6
39 31 4
39 32 9
39 33 5
39 34 5
39 35 5
39 37 5
40 3 10
40 4 9
40 6 8
40 9 3
40 12 9
40 13 5
40 14 7
40 15 6
40 17 8
40 26 2
40 28 10
40 29 6
40 34 2
40 35 11
40 36 3
40 38 4
41 0 4
41 5 11
41 9 11
41 14 6
41 15 9
41 16 4
41 19 4
41 20 4
41 22 7
41 23 5
41 24 10
41 28 7
41 29 5
41 33 5
41 35 9
41 37 7
41 38 3
41 40 11
42 0 9
42 2 6
42 4 11
42 5 6
42 8 9
42 9 1
42 10 5
42 12 1
42 13 3
42 14 5
42 15 6
42 19 7
42 21 1
42 25 6
42 26 1
42 29 1
42 30 4
42 31 1
42 33 4
42 35 6
42 36 10
42 37 10
42 39 3
42 41 8
43 1 11
43 9 3
43 12 10
43 14 6
43 18 11
43 19 11
43 20 10
43 21 5
43 23 3
43 24 9
43 25 6
43 33 9
43 34 6
43 35 5
43 37 7
43 39 3
44 3 10
44 4 7
44 10 5
44 11 6
44 13 4
44 14 7
44 17 6
44 19 3
44 20 2
44 21 5
44 22 6
44 27 3
44 28 10
44 32 11
44 35 7
44 36 8
44 37 3
44 38 3
44 41 6
44 42 10
45 2 10
45 4 10
45 5 2
45 6 3
45 10 1
45 12 9
45 14 5
45 15 5
45 17 1
45 21 1
45 22 10
45 23 5
45 24 2
45 26 4
45 27 1
45 35 9
45 38 8
45 39 3
45 44 3
46 0 8
46 2 7
46 4 6
46 6 11
46 10 7
46 11 3
46 13 7
46 14 2
46 15 7
46 16 6
46 17 3
46 20 7
46 22 4
46 23 5
46 25 6
46 27 9
46 29 2
46 30 2
46 32 5
46 33 4
46 35 11
46 41 3
46 42 4
47 2 6
47 4 5
47 6 11
47 7 2
47 9 6
47 10 4
47 11 5
47 13 6
47 14 7
47 15 8
47 16 10
47 18 5
47 19 10
47 20 6
47 25 10
47 27 4
47 29 10
47 35 8
47 40 7
47 42 4
47 43 10
47 46 9
48 4 10
48 7 10
48 9 2
48 10 5
48 11 6
48 12 5
48 13 4
48 14 9
48 16 9
48 19 9
48 22 5
48 23 9
48 24 6
48 26 10
48 27 8
48 31 3
48 32 11
48 33 9
48 34 7
48 36 5
48 37 5
48 39 10
48 42 10
48 43 10
48 44 9
48 45 5
48 46 7
49 0 5
49 4 9
49 5 9
49 6 8
49 11 4
49 13 1
49 15 11
49 17 10
49 18 10
49 19 10
49 21 2
49 22 8
49 23 8
49 24 10
49 26 1
49 27 2
49 29 9
49 30 11
49 31 5
49 32 1
49 38 2
49 39 5
49 43 9
49 44 7
49 46 8
49 47 3
50 3 8
50 4 3
50 5 6
50 7 8
50 9 4
50 10 3
50 11 5
50 13 2
50 20 3
50 21 5
50 26 3
50 27 9
50 28 11
50 30 4
50 31 2
50 32 11
50 33 7
50 35 10
50 36 3
50 37 11
50 44 10
50 47 5
50 48 4
50 49 10
51 0 2
51 4 7
51 6 3
51 8 8
51 9 9
51 10 7
51 12 4
51 13 10
51 14 2
51 17 4
51 18 11
51 20 3
51 22 6
51 23 1
51 26 11
51 29 10
51 31 1
51 33 10
51 34 9
51 35 2
51 36 10
51 38 8
51 39 10
51 40 2
51 42 4
51 43 6
51 44 6
51 46 5
51 49 2
52 0 8
52 1 5
52 4 3
52 5 3
52 6 10
52 8 5
52 10 8
52 11 5
52 12 7
52 14 7
52 15 11
52 24 6
52 25 5
52 27 3
52 28 11
52 29 3
52 36 11
52 38 2
52 39 2
52 41 10
52 44 7
52 45 4
52 46 9
52 47 3
52 48 11
52 50 1
53 0 6
53 1 1
53 5 9
53 6 6
53 7 2
53 8 8
53 9 6
53 18 1
53 19 9
53 20 6
53 21 2
53 23 6
53 25 9
53 26 7
53 27 4
53 33 8
53 37 4
53 41 11
53 42 2
53 43 7
53 46 5
53 52 1
54 1 1
54 5 11
54 8 9
54 9 7
54 10 10
54 11 1
54 15 2
54 18 7
54 20 4
54 21 7
54 25 11
54 26 1
54 28 8
54 29 7
54 31 10
54 32 11
54 34 9
54 35 7
54 39 1
54 40 8
54 41 10
54 43 8
54 47 9
54 50 7
54 51 7
54 52 8
55 1 5
55 9 7
55 10 1
55 11 4
55 13 8
55 14 4
55 15 3
55 16 4
55 19 11
55 20 2
55 21 2
55 22 5
55 27 3
55 30 3
55 32 10
55 34 8
55 41 10
55 44 6
55 45 6
55 46 7
55 47 2
55 48 5
55 50 8
55 52 11
56 0 9
56 3 10
56 5 6
56 8 11
56 10 2
56 11 8
56 13 4
56 16 8
56 17 6
56 22 2
56 24 2
56 28 8
56 29 5
56 30 3
56 36 6
56 37 3
56 38 5
56 39 5
56 42 10
56 43 2
56 44 7
56 47 5
56 50 9
56 52 9
56 53 4
56 55 5
57 0 7
57 1 2
57 4 5
57 5 1
57 7 5
57 8 2
57 10 3
57 14 6
57 18 6
57 22 5
57 24 7
57 25 4
57 27 8
57 35 8
57 36 5
57 38 10
57 41 7
57 43 6
57 44 8
57 50 8
57 52 8
58 0 10
58 2 5
58 5 6
58 7 9
58 8 4
58 9 3
58 11 3
58 12 1
58 13 10
58 15 7
58 16 6
58 19 7
58 20 2
58 22 6
58 23 5
58 28 1
58 29 1
58 30 11
58 31 4
58 32 8
58 34 1
58 35 4
58 36 9
58 39 9
58 40 1
58 41 9
58 43 3
58 46 3
58 47 3
58 49 10
58 51 1
58 53 9
58 55 3
58 57 7
59 0 9
59 1 8
59 5 9
59 10 6
59 11 6
59 16 1
59 19 10
59 20 8
59 24 7
59 28 10
59 29 7
59 30 8
59 32 8
59 33 5
59 34 6
59 37 9
59 38 5
59 39 3
59 47 9
59 49 10
59 50 1
59 56 6
59 58 2
